p cnf 650 3335
1 2 3 4 5 0
-1 -2 0
-1 -3 0
-1 -4 0
-1 -5 0
-2 -3 0
-2 -4 0
-2 -5 0
-3 -4 0
-3 -5 0
-4 -5 0
6 7 8 9 10 0
-6 -7 0
-6 -8 0
-6 -9 0
-6 -10 0
-7 -8 0
-7 -9 0
-7 -10 0
-8 -9 0
-8 -10 0
-9 -10 0
11 12 13 14 15 0
-11 -12 0
-11 -13 0
-11 -14 0
-11 -15 0
-12 -13 0
-12 -14 0
-12 -15 0
-13 -14 0
-13 -15 0
-14 -15 0
16 17 18 19 20 0
-16 -17 0
-16 -18 0
-16 -19 0
-16 -20 0
-17 -18 0
-17 -19 0
-17 -20 0
-18 -19 0
-18 -20 0
-19 -20 0
21 22 23 24 25 0
-21 -22 0
-21 -23 0
-21 -24 0
-21 -25 0
-22 -23 0
-22 -24 0
-22 -25 0
-23 -24 0
-23 -25 0
-24 -25 0
26 27 28 29 30 0
-26 -27 0
-26 -28 0
-26 -29 0
-26 -30 0
-27 -28 0
-27 -29 0
-27 -30 0
-28 -29 0
-28 -30 0
-29 -30 0
31 32 33 34 35 0
-31 -32 0
-31 -33 0
-31 -34 0
-31 -35 0
-32 -33 0
-32 -34 0
-32 -35 0
-33 -34 0
-33 -35 0
-34 -35 0
36 37 38 39 40 0
-36 -37 0
-36 -38 0
-36 -39 0
-36 -40 0
-37 -38 0
-37 -39 0
-37 -40 0
-38 -39 0
-38 -40 0
-39 -40 0
41 42 43 44 45 0
-41 -42 0
-41 -43 0
-41 -44 0
-41 -45 0
-42 -43 0
-42 -44 0
-42 -45 0
-43 -44 0
-43 -45 0
-44 -45 0
46 47 48 49 50 0
-46 -47 0
-46 -48 0
-46 -49 0
-46 -50 0
-47 -48 0
-47 -49 0
-47 -50 0
-48 -49 0
-48 -50 0
-49 -50 0
51 52 53 54 55 0
-51 -52 0
-51 -53 0
-51 -54 0
-51 -55 0
-52 -53 0
-52 -54 0
-52 -55 0
-53 -54 0
-53 -55 0
-54 -55 0
56 57 58 59 60 0
-56 -57 0
-56 -58 0
-56 -59 0
-56 -60 0
-57 -58 0
-57 -59 0
-57 -60 0
-58 -59 0
-58 -60 0
-59 -60 0
61 62 63 64 65 0
-61 -62 0
-61 -63 0
-61 -64 0
-61 -65 0
-62 -63 0
-62 -64 0
-62 -65 0
-63 -64 0
-63 -65 0
-64 -65 0
66 67 68 69 70 0
-66 -67 0
-66 -68 0
-66 -69 0
-66 -70 0
-67 -68 0
-67 -69 0
-67 -70 0
-68 -69 0
-68 -70 0
-69 -70 0
71 72 73 74 75 0
-71 -72 0
-71 -73 0
-71 -74 0
-71 -75 0
-72 -73 0
-72 -74 0
-72 -75 0
-73 -74 0
-73 -75 0
-74 -75 0
76 77 78 79 80 0
-76 -77 0
-76 -78 0
-76 -79 0
-76 -80 0
-77 -78 0
-77 -79 0
-77 -80 0
-78 -79 0
-78 -80 0
-79 -80 0
81 82 83 84 85 0
-81 -82 0
-81 -83 0
-81 -84 0
-81 -85 0
-82 -83 0
-82 -84 0
-82 -85 0
-83 -84 0
-83 -85 0
-84 -85 0
86 87 88 89 90 0
-86 -87 0
-86 -88 0
-86 -89 0
-86 -90 0
-87 -88 0
-87 -89 0
-87 -90 0
-88 -89 0
-88 -90 0
-89 -90 0
91 92 93 94 95 0
-91 -92 0
-91 -93 0
-91 -94 0
-91 -95 0
-92 -93 0
-92 -94 0
-92 -95 0
-93 -94 0
-93 -95 0
-94 -95 0
96 97 98 99 100 0
-96 -97 0
-96 -98 0
-96 -99 0
-96 -100 0
-97 -98 0
-97 -99 0
-97 -100 0
-98 -99 0
-98 -100 0
-99 -100 0
101 102 103 104 105 0
-101 -102 0
-101 -103 0
-101 -104 0
-101 -105 0
-102 -103 0
-102 -104 0
-102 -105 0
-103 -104 0
-103 -105 0
-104 -105 0
106 107 108 109 110 0
-106 -107 0
-106 -108 0
-106 -109 0
-106 -110 0
-107 -108 0
-107 -109 0
-107 -110 0
-108 -109 0
-108 -110 0
-109 -110 0
111 112 113 114 115 0
-111 -112 0
-111 -113 0
-111 -114 0
-111 -115 0
-112 -113 0
-112 -114 0
-112 -115 0
-113 -114 0
-113 -115 0
-114 -115 0
116 117 118 119 120 0
-116 -117 0
-116 -118 0
-116 -119 0
-116 -120 0
-117 -118 0
-117 -119 0
-117 -120 0
-118 -119 0
-118 -120 0
-119 -120 0
121 122 123 124 125 0
-121 -122 0
-121 -123 0
-121 -124 0
-121 -125 0
-122 -123 0
-122 -124 0
-122 -125 0
-123 -124 0
-123 -125 0
-124 -125 0
126 127 128 129 130 0
-126 -127 0
-126 -128 0
-126 -129 0
-126 -130 0
-127 -128 0
-127 -129 0
-127 -130 0
-128 -129 0
-128 -130 0
-129 -130 0
131 132 133 134 135 0
-131 -132 0
-131 -133 0
-131 -134 0
-131 -135 0
-132 -133 0
-132 -134 0
-132 -135 0
-133 -134 0
-133 -135 0
-134 -135 0
136 137 138 139 140 0
-136 -137 0
-136 -138 0
-136 -139 0
-136 -140 0
-137 -138 0
-137 -139 0
-137 -140 0
-138 -139 0
-138 -140 0
-139 -140 0
141 142 143 144 145 0
-141 -142 0
-141 -143 0
-141 -144 0
-141 -145 0
-142 -143 0
-142 -144 0
-142 -145 0
-143 -144 0
-143 -145 0
-144 -145 0
146 147 148 149 150 0
-146 -147 0
-146 -148 0
-146 -149 0
-146 -150 0
-147 -148 0
-147 -149 0
-147 -150 0
-148 -149 0
-148 -150 0
-149 -150 0
151 152 153 154 155 0
-151 -152 0
-151 -153 0
-151 -154 0
-151 -155 0
-152 -153 0
-152 -154 0
-152 -155 0
-153 -154 0
-153 -155 0
-154 -155 0
156 157 158 159 160 0
-156 -157 0
-156 -158 0
-156 -159 0
-156 -160 0
-157 -158 0
-157 -159 0
-157 -160 0
-158 -159 0
-158 -160 0
-159 -160 0
161 162 163 164 165 0
-161 -162 0
-161 -163 0
-161 -164 0
-161 -165 0
-162 -163 0
-162 -164 0
-162 -165 0
-163 -164 0
-163 -165 0
-164 -165 0
166 167 168 169 170 0
-166 -167 0
-166 -168 0
-166 -169 0
-166 -170 0
-167 -168 0
-167 -169 0
-167 -170 0
-168 -169 0
-168 -170 0
-169 -170 0
171 172 173 174 175 0
-171 -172 0
-171 -173 0
-171 -174 0
-171 -175 0
-172 -173 0
-172 -174 0
-172 -175 0
-173 -174 0
-173 -175 0
-174 -175 0
176 177 178 179 180 0
-176 -177 0
-176 -178 0
-176 -179 0
-176 -180 0
-177 -178 0
-177 -179 0
-177 -180 0
-178 -179 0
-178 -180 0
-179 -180 0
181 182 183 184 185 0
-181 -182 0
-181 -183 0
-181 -184 0
-181 -185 0
-182 -183 0
-182 -184 0
-182 -185 0
-183 -184 0
-183 -185 0
-184 -185 0
186 187 188 189 190 0
-186 -187 0
-186 -188 0
-186 -189 0
-186 -190 0
-187 -188 0
-187 -189 0
-187 -190 0
-188 -189 0
-188 -190 0
-189 -190 0
191 192 193 194 195 0
-191 -192 0
-191 -193 0
-191 -194 0
-191 -195 0
-192 -193 0
-192 -194 0
-192 -195 0
-193 -194 0
-193 -195 0
-194 -195 0
196 197 198 199 200 0
-196 -197 0
-196 -198 0
-196 -199 0
-196 -200 0
-197 -198 0
-197 -199 0
-197 -200 0
-198 -199 0
-198 -200 0
-199 -200 0
201 202 203 204 205 0
-201 -202 0
-201 -203 0
-201 -204 0
-201 -205 0
-202 -203 0
-202 -204 0
-202 -205 0
-203 -204 0
-203 -205 0
-204 -205 0
206 207 208 209 210 0
-206 -207 0
-206 -208 0
-206 -209 0
-206 -210 0
-207 -208 0
-207 -209 0
-207 -210 0
-208 -209 0
-208 -210 0
-209 -210 0
211 212 213 214 215 0
-211 -212 0
-211 -213 0
-211 -214 0
-211 -215 0
-212 -213 0
-212 -214 0
-212 -215 0
-213 -214 0
-213 -215 0
-214 -215 0
216 217 218 219 220 0
-216 -217 0
-216 -218 0
-216 -219 0
-216 -220 0
-217 -218 0
-217 -219 0
-217 -220 0
-218 -219 0
-218 -220 0
-219 -220 0
221 222 223 224 225 0
-221 -222 0
-221 -223 0
-221 -224 0
-221 -225 0
-222 -223 0
-222 -224 0
-222 -225 0
-223 -224 0
-223 -225 0
-224 -225 0
226 227 228 229 230 0
-226 -227 0
-226 -228 0
-226 -229 0
-226 -230 0
-227 -228 0
-227 -229 0
-227 -230 0
-228 -229 0
-228 -230 0
-229 -230 0
231 232 233 234 235 0
-231 -232 0
-231 -233 0
-231 -234 0
-231 -235 0
-232 -233 0
-232 -234 0
-232 -235 0
-233 -234 0
-233 -235 0
-234 -235 0
236 237 238 239 240 0
-236 -237 0
-236 -238 0
-236 -239 0
-236 -240 0
-237 -238 0
-237 -239 0
-237 -240 0
-238 -239 0
-238 -240 0
-239 -240 0
241 242 243 244 245 0
-241 -242 0
-241 -243 0
-241 -244 0
-241 -245 0
-242 -243 0
-242 -244 0
-242 -245 0
-243 -244 0
-243 -245 0
-244 -245 0
246 247 248 249 250 0
-246 -247 0
-246 -248 0
-246 -249 0
-246 -250 0
-247 -248 0
-247 -249 0
-247 -250 0
-248 -249 0
-248 -250 0
-249 -250 0
251 252 253 254 255 0
-251 -252 0
-251 -253 0
-251 -254 0
-251 -255 0
-252 -253 0
-252 -254 0
-252 -255 0
-253 -254 0
-253 -255 0
-254 -255 0
256 257 258 259 260 0
-256 -257 0
-256 -258 0
-256 -259 0
-256 -260 0
-257 -258 0
-257 -259 0
-257 -260 0
-258 -259 0
-258 -260 0
-259 -260 0
261 262 263 264 265 0
-261 -262 0
-261 -263 0
-261 -264 0
-261 -265 0
-262 -263 0
-262 -264 0
-262 -265 0
-263 -264 0
-263 -265 0
-264 -265 0
266 267 268 269 270 0
-266 -267 0
-266 -268 0
-266 -269 0
-266 -270 0
-267 -268 0
-267 -269 0
-267 -270 0
-268 -269 0
-268 -270 0
-269 -270 0
271 272 273 274 275 0
-271 -272 0
-271 -273 0
-271 -274 0
-271 -275 0
-272 -273 0
-272 -274 0
-272 -275 0
-273 -274 0
-273 -275 0
-274 -275 0
276 277 278 279 280 0
-276 -277 0
-276 -278 0
-276 -279 0
-276 -280 0
-277 -278 0
-277 -279 0
-277 -280 0
-278 -279 0
-278 -280 0
-279 -280 0
281 282 283 284 285 0
-281 -282 0
-281 -283 0
-281 -284 0
-281 -285 0
-282 -283 0
-282 -284 0
-282 -285 0
-283 -284 0
-283 -285 0
-284 -285 0
286 287 288 289 290 0
-286 -287 0
-286 -288 0
-286 -289 0
-286 -290 0
-287 -288 0
-287 -289 0
-287 -290 0
-288 -289 0
-288 -290 0
-289 -290 0
291 292 293 294 295 0
-291 -292 0
-291 -293 0
-291 -294 0
-291 -295 0
-292 -293 0
-292 -294 0
-292 -295 0
-293 -294 0
-293 -295 0
-294 -295 0
296 297 298 299 300 0
-296 -297 0
-296 -298 0
-296 -299 0
-296 -300 0
-297 -298 0
-297 -299 0
-297 -300 0
-298 -299 0
-298 -300 0
-299 -300 0
301 302 303 304 305 0
-301 -302 0
-301 -303 0
-301 -304 0
-301 -305 0
-302 -303 0
-302 -304 0
-302 -305 0
-303 -304 0
-303 -305 0
-304 -305 0
306 307 308 309 310 0
-306 -307 0
-306 -308 0
-306 -309 0
-306 -310 0
-307 -308 0
-307 -309 0
-307 -310 0
-308 -309 0
-308 -310 0
-309 -310 0
311 312 313 314 315 0
-311 -312 0
-311 -313 0
-311 -314 0
-311 -315 0
-312 -313 0
-312 -314 0
-312 -315 0
-313 -314 0
-313 -315 0
-314 -315 0
316 317 318 319 320 0
-316 -317 0
-316 -318 0
-316 -319 0
-316 -320 0
-317 -318 0
-317 -319 0
-317 -320 0
-318 -319 0
-318 -320 0
-319 -320 0
321 322 323 324 325 0
-321 -322 0
-321 -323 0
-321 -324 0
-321 -325 0
-322 -323 0
-322 -324 0
-322 -325 0
-323 -324 0
-323 -325 0
-324 -325 0
326 327 328 329 330 0
-326 -327 0
-326 -328 0
-326 -329 0
-326 -330 0
-327 -328 0
-327 -329 0
-327 -330 0
-328 -329 0
-328 -330 0
-329 -330 0
331 332 333 334 335 0
-331 -332 0
-331 -333 0
-331 -334 0
-331 -335 0
-332 -333 0
-332 -334 0
-332 -335 0
-333 -334 0
-333 -335 0
-334 -335 0
336 337 338 339 340 0
-336 -337 0
-336 -338 0
-336 -339 0
-336 -340 0
-337 -338 0
-337 -339 0
-337 -340 0
-338 -339 0
-338 -340 0
-339 -340 0
341 342 343 344 345 0
-341 -342 0
-341 -343 0
-341 -344 0
-341 -345 0
-342 -343 0
-342 -344 0
-342 -345 0
-343 -344 0
-343 -345 0
-344 -345 0
346 347 348 349 350 0
-346 -347 0
-346 -348 0
-346 -349 0
-346 -350 0
-347 -348 0
-347 -349 0
-347 -350 0
-348 -349 0
-348 -350 0
-349 -350 0
351 352 353 354 355 0
-351 -352 0
-351 -353 0
-351 -354 0
-351 -355 0
-352 -353 0
-352 -354 0
-352 -355 0
-353 -354 0
-353 -355 0
-354 -355 0
356 357 358 359 360 0
-356 -357 0
-356 -358 0
-356 -359 0
-356 -360 0
-357 -358 0
-357 -359 0
-357 -360 0
-358 -359 0
-358 -360 0
-359 -360 0
361 362 363 364 365 0
-361 -362 0
-361 -363 0
-361 -364 0
-361 -365 0
-362 -363 0
-362 -364 0
-362 -365 0
-363 -364 0
-363 -365 0
-364 -365 0
366 367 368 369 370 0
-366 -367 0
-366 -368 0
-366 -369 0
-366 -370 0
-367 -368 0
-367 -369 0
-367 -370 0
-368 -369 0
-368 -370 0
-369 -370 0
371 372 373 374 375 0
-371 -372 0
-371 -373 0
-371 -374 0
-371 -375 0
-372 -373 0
-372 -374 0
-372 -375 0
-373 -374 0
-373 -375 0
-374 -375 0
376 377 378 379 380 0
-376 -377 0
-376 -378 0
-376 -379 0
-376 -380 0
-377 -378 0
-377 -379 0
-377 -380 0
-378 -379 0
-378 -380 0
-379 -380 0
381 382 383 384 385 0
-381 -382 0
-381 -383 0
-381 -384 0
-381 -385 0
-382 -383 0
-382 -384 0
-382 -385 0
-383 -384 0
-383 -385 0
-384 -385 0
386 387 388 389 390 0
-386 -387 0
-386 -388 0
-386 -389 0
-386 -390 0
-387 -388 0
-387 -389 0
-387 -390 0
-388 -389 0
-388 -390 0
-389 -390 0
391 392 393 394 395 0
-391 -392 0
-391 -393 0
-391 -394 0
-391 -395 0
-392 -393 0
-392 -394 0
-392 -395 0
-393 -394 0
-393 -395 0
-394 -395 0
396 397 398 399 400 0
-396 -397 0
-396 -398 0
-396 -399 0
-396 -400 0
-397 -398 0
-397 -399 0
-397 -400 0
-398 -399 0
-398 -400 0
-399 -400 0
401 402 403 404 405 0
-401 -402 0
-401 -403 0
-401 -404 0
-401 -405 0
-402 -403 0
-402 -404 0
-402 -405 0
-403 -404 0
-403 -405 0
-404 -405 0
406 407 408 409 410 0
-406 -407 0
-406 -408 0
-406 -409 0
-406 -410 0
-407 -408 0
-407 -409 0
-407 -410 0
-408 -409 0
-408 -410 0
-409 -410 0
411 412 413 414 415 0
-411 -412 0
-411 -413 0
-411 -414 0
-411 -415 0
-412 -413 0
-412 -414 0
-412 -415 0
-413 -414 0
-413 -415 0
-414 -415 0
416 417 418 419 420 0
-416 -417 0
-416 -418 0
-416 -419 0
-416 -420 0
-417 -418 0
-417 -419 0
-417 -420 0
-418 -419 0
-418 -420 0
-419 -420 0
421 422 423 424 425 0
-421 -422 0
-421 -423 0
-421 -424 0
-421 -425 0
-422 -423 0
-422 -424 0
-422 -425 0
-423 -424 0
-423 -425 0
-424 -425 0
426 427 428 429 430 0
-426 -427 0
-426 -428 0
-426 -429 0
-426 -430 0
-427 -428 0
-427 -429 0
-427 -430 0
-428 -429 0
-428 -430 0
-429 -430 0
431 432 433 434 435 0
-431 -432 0
-431 -433 0
-431 -434 0
-431 -435 0
-432 -433 0
-432 -434 0
-432 -435 0
-433 -434 0
-433 -435 0
-434 -435 0
436 437 438 439 440 0
-436 -437 0
-436 -438 0
-436 -439 0
-436 -440 0
-437 -438 0
-437 -439 0
-437 -440 0
-438 -439 0
-438 -440 0
-439 -440 0
441 442 443 444 445 0
-441 -442 0
-441 -443 0
-441 -444 0
-441 -445 0
-442 -443 0
-442 -444 0
-442 -445 0
-443 -444 0
-443 -445 0
-444 -445 0
446 447 448 449 450 0
-446 -447 0
-446 -448 0
-446 -449 0
-446 -450 0
-447 -448 0
-447 -449 0
-447 -450 0
-448 -449 0
-448 -450 0
-449 -450 0
451 452 453 454 455 0
-451 -452 0
-451 -453 0
-451 -454 0
-451 -455 0
-452 -453 0
-452 -454 0
-452 -455 0
-453 -454 0
-453 -455 0
-454 -455 0
456 457 458 459 460 0
-456 -457 0
-456 -458 0
-456 -459 0
-456 -460 0
-457 -458 0
-457 -459 0
-457 -460 0
-458 -459 0
-458 -460 0
-459 -460 0
461 462 463 464 465 0
-461 -462 0
-461 -463 0
-461 -464 0
-461 -465 0
-462 -463 0
-462 -464 0
-462 -465 0
-463 -464 0
-463 -465 0
-464 -465 0
466 467 468 469 470 0
-466 -467 0
-466 -468 0
-466 -469 0
-466 -470 0
-467 -468 0
-467 -469 0
-467 -470 0
-468 -469 0
-468 -470 0
-469 -470 0
471 472 473 474 475 0
-471 -472 0
-471 -473 0
-471 -474 0
-471 -475 0
-472 -473 0
-472 -474 0
-472 -475 0
-473 -474 0
-473 -475 0
-474 -475 0
476 477 478 479 480 0
-476 -477 0
-476 -478 0
-476 -479 0
-476 -480 0
-477 -478 0
-477 -479 0
-477 -480 0
-478 -479 0
-478 -480 0
-479 -480 0
481 482 483 484 485 0
-481 -482 0
-481 -483 0
-481 -484 0
-481 -485 0
-482 -483 0
-482 -484 0
-482 -485 0
-483 -484 0
-483 -485 0
-484 -485 0
486 487 488 489 490 0
-486 -487 0
-486 -488 0
-486 -489 0
-486 -490 0
-487 -488 0
-487 -489 0
-487 -490 0
-488 -489 0
-488 -490 0
-489 -490 0
491 492 493 494 495 0
-491 -492 0
-491 -493 0
-491 -494 0
-491 -495 0
-492 -493 0
-492 -494 0
-492 -495 0
-493 -494 0
-493 -495 0
-494 -495 0
496 497 498 499 500 0
-496 -497 0
-496 -498 0
-496 -499 0
-496 -500 0
-497 -498 0
-497 -499 0
-497 -500 0
-498 -499 0
-498 -500 0
-499 -500 0
501 502 503 504 505 0
-501 -502 0
-501 -503 0
-501 -504 0
-501 -505 0
-502 -503 0
-502 -504 0
-502 -505 0
-503 -504 0
-503 -505 0
-504 -505 0
506 507 508 509 510 0
-506 -507 0
-506 -508 0
-506 -509 0
-506 -510 0
-507 -508 0
-507 -509 0
-507 -510 0
-508 -509 0
-508 -510 0
-509 -510 0
511 512 513 514 515 0
-511 -512 0
-511 -513 0
-511 -514 0
-511 -515 0
-512 -513 0
-512 -514 0
-512 -515 0
-513 -514 0
-513 -515 0
-514 -515 0
516 517 518 519 520 0
-516 -517 0
-516 -518 0
-516 -519 0
-516 -520 0
-517 -518 0
-517 -519 0
-517 -520 0
-518 -519 0
-518 -520 0
-519 -520 0
521 522 523 524 525 0
-521 -522 0
-521 -523 0
-521 -524 0
-521 -525 0
-522 -523 0
-522 -524 0
-522 -525 0
-523 -524 0
-523 -525 0
-524 -525 0
526 527 528 529 530 0
-526 -527 0
-526 -528 0
-526 -529 0
-526 -530 0
-527 -528 0
-527 -529 0
-527 -530 0
-528 -529 0
-528 -530 0
-529 -530 0
531 532 533 534 535 0
-531 -532 0
-531 -533 0
-531 -534 0
-531 -535 0
-532 -533 0
-532 -534 0
-532 -535 0
-533 -534 0
-533 -535 0
-534 -535 0
536 537 538 539 540 0
-536 -537 0
-536 -538 0
-536 -539 0
-536 -540 0
-537 -538 0
-537 -539 0
-537 -540 0
-538 -539 0
-538 -540 0
-539 -540 0
541 542 543 544 545 0
-541 -542 0
-541 -543 0
-541 -544 0
-541 -545 0
-542 -543 0
-542 -544 0
-542 -545 0
-543 -544 0
-543 -545 0
-544 -545 0
546 547 548 549 550 0
-546 -547 0
-546 -548 0
-546 -549 0
-546 -550 0
-547 -548 0
-547 -549 0
-547 -550 0
-548 -549 0
-548 -550 0
-549 -550 0
551 552 553 554 555 0
-551 -552 0
-551 -553 0
-551 -554 0
-551 -555 0
-552 -553 0
-552 -554 0
-552 -555 0
-553 -554 0
-553 -555 0
-554 -555 0
556 557 558 559 560 0
-556 -557 0
-556 -558 0
-556 -559 0
-556 -560 0
-557 -558 0
-557 -559 0
-557 -560 0
-558 -559 0
-558 -560 0
-559 -560 0
561 562 563 564 565 0
-561 -562 0
-561 -563 0
-561 -564 0
-561 -565 0
-562 -563 0
-562 -564 0
-562 -565 0
-563 -564 0
-563 -565 0
-564 -565 0
566 567 568 569 570 0
-566 -567 0
-566 -568 0
-566 -569 0
-566 -570 0
-567 -568 0
-567 -569 0
-567 -570 0
-568 -569 0
-568 -570 0
-569 -570 0
571 572 573 574 575 0
-571 -572 0
-571 -573 0
-571 -574 0
-571 -575 0
-572 -573 0
-572 -574 0
-572 -575 0
-573 -574 0
-573 -575 0
-574 -575 0
576 577 578 579 580 0
-576 -577 0
-576 -578 0
-576 -579 0
-576 -580 0
-577 -578 0
-577 -579 0
-577 -580 0
-578 -579 0
-578 -580 0
-579 -580 0
581 582 583 584 585 0
-581 -582 0
-581 -583 0
-581 -584 0
-581 -585 0
-582 -583 0
-582 -584 0
-582 -585 0
-583 -584 0
-583 -585 0
-584 -585 0
586 587 588 589 590 0
-586 -587 0
-586 -588 0
-586 -589 0
-586 -590 0
-587 -588 0
-587 -589 0
-587 -590 0
-588 -589 0
-588 -590 0
-589 -590 0
591 592 593 594 595 0
-591 -592 0
-591 -593 0
-591 -594 0
-591 -595 0
-592 -593 0
-592 -594 0
-592 -595 0
-593 -594 0
-593 -595 0
-594 -595 0
596 597 598 599 600 0
-596 -597 0
-596 -598 0
-596 -599 0
-596 -600 0
-597 -598 0
-597 -599 0
-597 -600 0
-598 -599 0
-598 -600 0
-599 -600 0
601 602 603 604 605 0
-601 -602 0
-601 -603 0
-601 -604 0
-601 -605 0
-602 -603 0
-602 -604 0
-602 -605 0
-603 -604 0
-603 -605 0
-604 -605 0
606 607 608 609 610 0
-606 -607 0
-606 -608 0
-606 -609 0
-606 -610 0
-607 -608 0
-607 -609 0
-607 -610 0
-608 -609 0
-608 -610 0
-609 -610 0
611 612 613 614 615 0
-611 -612 0
-611 -613 0
-611 -614 0
-611 -615 0
-612 -613 0
-612 -614 0
-612 -615 0
-613 -614 0
-613 -615 0
-614 -615 0
616 617 618 619 620 0
-616 -617 0
-616 -618 0
-616 -619 0
-616 -620 0
-617 -618 0
-617 -619 0
-617 -620 0
-618 -619 0
-618 -620 0
-619 -620 0
621 622 623 624 625 0
-621 -622 0
-621 -623 0
-621 -624 0
-621 -625 0
-622 -623 0
-622 -624 0
-622 -625 0
-623 -624 0
-623 -625 0
-624 -625 0
626 627 628 629 630 0
-626 -627 0
-626 -628 0
-626 -629 0
-626 -630 0
-627 -628 0
-627 -629 0
-627 -630 0
-628 -629 0
-628 -630 0
-629 -630 0
631 632 633 634 635 0
-631 -632 0
-631 -633 0
-631 -634 0
-631 -635 0
-632 -633 0
-632 -634 0
-632 -635 0
-633 -634 0
-633 -635 0
-634 -635 0
636 637 638 639 640 0
-636 -637 0
-636 -638 0
-636 -639 0
-636 -640 0
-637 -638 0
-637 -639 0
-637 -640 0
-638 -639 0
-638 -640 0
-639 -640 0
641 642 643 644 645 0
-641 -642 0
-641 -643 0
-641 -644 0
-641 -645 0
-642 -643 0
-642 -644 0
-642 -645 0
-643 -644 0
-643 -645 0
-644 -645 0
646 647 648 649 650 0
-646 -647 0
-646 -648 0
-646 -649 0
-646 -650 0
-647 -648 0
-647 -649 0
-647 -650 0
-648 -649 0
-648 -650 0
-649 -650 0
-1 -16 0
-2 -17 0
-3 -18 0
-4 -19 0
-5 -20 0
-1 -21 0
-2 -22 0
-3 -23 0
-4 -24 0
-5 -25 0
-1 -26 0
-2 -27 0
-3 -28 0
-4 -29 0
-5 -30 0
-1 -31 0
-2 -32 0
-3 -33 0
-4 -34 0
-5 -35 0
-1 -41 0
-2 -42 0
-3 -43 0
-4 -44 0
-5 -45 0
-1 -56 0
-2 -57 0
-3 -58 0
-4 -59 0
-5 -60 0
-1 -71 0
-2 -72 0
-3 -73 0
-4 -74 0
-5 -75 0
-1 -76 0
-2 -77 0
-3 -78 0
-4 -79 0
-5 -80 0
-1 -81 0
-2 -82 0
-3 -83 0
-4 -84 0
-5 -85 0
-1 -101 0
-2 -102 0
-3 -103 0
-4 -104 0
-5 -105 0
-1 -106 0
-2 -107 0
-3 -108 0
-4 -109 0
-5 -110 0
-1 -111 0
-2 -112 0
-3 -113 0
-4 -114 0
-5 -115 0
-1 -131 0
-2 -132 0
-3 -133 0
-4 -134 0
-5 -135 0
-1 -171 0
-2 -172 0
-3 -173 0
-4 -174 0
-5 -175 0
-1 -211 0
-2 -212 0
-3 -213 0
-4 -214 0
-5 -215 0
-1 -216 0
-2 -217 0
-3 -218 0
-4 -219 0
-5 -220 0
-1 -226 0
-2 -227 0
-3 -228 0
-4 -229 0
-5 -230 0
-1 -266 0
-2 -267 0
-3 -268 0
-4 -269 0
-5 -270 0
-1 -271 0
-2 -272 0
-3 -273 0
-4 -274 0
-5 -275 0
-1 -281 0
-2 -282 0
-3 -283 0
-4 -284 0
-5 -285 0
-1 -301 0
-2 -302 0
-3 -303 0
-4 -304 0
-5 -305 0
-1 -321 0
-2 -322 0
-3 -323 0
-4 -324 0
-5 -325 0
-1 -331 0
-2 -332 0
-3 -333 0
-4 -334 0
-5 -335 0
-1 -356 0
-2 -357 0
-3 -358 0
-4 -359 0
-5 -360 0
-1 -381 0
-2 -382 0
-3 -383 0
-4 -384 0
-5 -385 0
-1 -396 0
-2 -397 0
-3 -398 0
-4 -399 0
-5 -400 0
-1 -401 0
-2 -402 0
-3 -403 0
-4 -404 0
-5 -405 0
-1 -416 0
-2 -417 0
-3 -418 0
-4 -419 0
-5 -420 0
-1 -466 0
-2 -467 0
-3 -468 0
-4 -469 0
-5 -470 0
-1 -496 0
-2 -497 0
-3 -498 0
-4 -499 0
-5 -500 0
-1 -526 0
-2 -527 0
-3 -528 0
-4 -529 0
-5 -530 0
-1 -541 0
-2 -542 0
-3 -543 0
-4 -544 0
-5 -545 0
-6 -16 0
-7 -17 0
-8 -18 0
-9 -19 0
-10 -20 0
-6 -21 0
-7 -22 0
-8 -23 0
-9 -24 0
-10 -25 0
-6 -26 0
-7 -27 0
-8 -28 0
-9 -29 0
-10 -30 0
-6 -31 0
-7 -32 0
-8 -33 0
-9 -34 0
-10 -35 0
-6 -41 0
-7 -42 0
-8 -43 0
-9 -44 0
-10 -45 0
-6 -46 0
-7 -47 0
-8 -48 0
-9 -49 0
-10 -50 0
-6 -51 0
-7 -52 0
-8 -53 0
-9 -54 0
-10 -55 0
-6 -66 0
-7 -67 0
-8 -68 0
-9 -69 0
-10 -70 0
-6 -76 0
-7 -77 0
-8 -78 0
-9 -79 0
-10 -80 0
-6 -91 0
-7 -92 0
-8 -93 0
-9 -94 0
-10 -95 0
-6 -101 0
-7 -102 0
-8 -103 0
-9 -104 0
-10 -105 0
-6 -126 0
-7 -127 0
-8 -128 0
-9 -129 0
-10 -130 0
-6 -206 0
-7 -207 0
-8 -208 0
-9 -209 0
-10 -210 0
-6 -231 0
-7 -232 0
-8 -233 0
-9 -234 0
-10 -235 0
-6 -296 0
-7 -297 0
-8 -298 0
-9 -299 0
-10 -300 0
-6 -401 0
-7 -402 0
-8 -403 0
-9 -404 0
-10 -405 0
-6 -406 0
-7 -407 0
-8 -408 0
-9 -409 0
-10 -410 0
-6 -476 0
-7 -477 0
-8 -478 0
-9 -479 0
-10 -480 0
-6 -516 0
-7 -517 0
-8 -518 0
-9 -519 0
-10 -520 0
-6 -531 0
-7 -532 0
-8 -533 0
-9 -534 0
-10 -535 0
-6 -551 0
-7 -552 0
-8 -553 0
-9 -554 0
-10 -555 0
-6 -591 0
-7 -592 0
-8 -593 0
-9 -594 0
-10 -595 0
-6 -611 0
-7 -612 0
-8 -613 0
-9 -614 0
-10 -615 0
-11 -16 0
-12 -17 0
-13 -18 0
-14 -19 0
-15 -20 0
-11 -51 0
-12 -52 0
-13 -53 0
-14 -54 0
-15 -55 0
-11 -61 0
-12 -62 0
-13 -63 0
-14 -64 0
-15 -65 0
-11 -116 0
-12 -117 0
-13 -118 0
-14 -119 0
-15 -120 0
-11 -151 0
-12 -152 0
-13 -153 0
-14 -154 0
-15 -155 0
-11 -181 0
-12 -182 0
-13 -183 0
-14 -184 0
-15 -185 0
-11 -511 0
-12 -512 0
-13 -513 0
-14 -514 0
-15 -515 0
-16 -21 0
-17 -22 0
-18 -23 0
-19 -24 0
-20 -25 0
-16 -26 0
-17 -27 0
-18 -28 0
-19 -29 0
-20 -30 0
-16 -36 0
-17 -37 0
-18 -38 0
-19 -39 0
-20 -40 0
-16 -41 0
-17 -42 0
-18 -43 0
-19 -44 0
-20 -45 0
-16 -56 0
-17 -57 0
-18 -58 0
-19 -59 0
-20 -60 0
-16 -66 0
-17 -67 0
-18 -68 0
-19 -69 0
-20 -70 0
-16 -71 0
-17 -72 0
-18 -73 0
-19 -74 0
-20 -75 0
-16 -121 0
-17 -122 0
-18 -123 0
-19 -124 0
-20 -125 0
-16 -146 0
-17 -147 0
-18 -148 0
-19 -149 0
-20 -150 0
-16 -156 0
-17 -157 0
-18 -158 0
-19 -159 0
-20 -160 0
-16 -186 0
-17 -187 0
-18 -188 0
-19 -189 0
-20 -190 0
-16 -226 0
-17 -227 0
-18 -228 0
-19 -229 0
-20 -230 0
-16 -236 0
-17 -237 0
-18 -238 0
-19 -239 0
-20 -240 0
-16 -256 0
-17 -257 0
-18 -258 0
-19 -259 0
-20 -260 0
-16 -336 0
-17 -337 0
-18 -338 0
-19 -339 0
-20 -340 0
-16 -361 0
-17 -362 0
-18 -363 0
-19 -364 0
-20 -365 0
-16 -366 0
-17 -367 0
-18 -368 0
-19 -369 0
-20 -370 0
-16 -371 0
-17 -372 0
-18 -373 0
-19 -374 0
-20 -375 0
-16 -386 0
-17 -387 0
-18 -388 0
-19 -389 0
-20 -390 0
-16 -446 0
-17 -447 0
-18 -448 0
-19 -449 0
-20 -450 0
-16 -511 0
-17 -512 0
-18 -513 0
-19 -514 0
-20 -515 0
-16 -536 0
-17 -537 0
-18 -538 0
-19 -539 0
-20 -540 0
-16 -601 0
-17 -602 0
-18 -603 0
-19 -604 0
-20 -605 0
-21 -31 0
-22 -32 0
-23 -33 0
-24 -34 0
-25 -35 0
-21 -36 0
-22 -37 0
-23 -38 0
-24 -39 0
-25 -40 0
-21 -51 0
-22 -52 0
-23 -53 0
-24 -54 0
-25 -55 0
-21 -71 0
-22 -72 0
-23 -73 0
-24 -74 0
-25 -75 0
-21 -81 0
-22 -82 0
-23 -83 0
-24 -84 0
-25 -85 0
-21 -86 0
-22 -87 0
-23 -88 0
-24 -89 0
-25 -90 0
-21 -111 0
-22 -112 0
-23 -113 0
-24 -114 0
-25 -115 0
-21 -146 0
-22 -147 0
-23 -148 0
-24 -149 0
-25 -150 0
-21 -161 0
-22 -162 0
-23 -163 0
-24 -164 0
-25 -165 0
-21 -171 0
-22 -172 0
-23 -173 0
-24 -174 0
-25 -175 0
-21 -176 0
-22 -177 0
-23 -178 0
-24 -179 0
-25 -180 0
-21 -186 0
-22 -187 0
-23 -188 0
-24 -189 0
-25 -190 0
-21 -196 0
-22 -197 0
-23 -198 0
-24 -199 0
-25 -200 0
-21 -236 0
-22 -237 0
-23 -238 0
-24 -239 0
-25 -240 0
-21 -271 0
-22 -272 0
-23 -273 0
-24 -274 0
-25 -275 0
-21 -276 0
-22 -277 0
-23 -278 0
-24 -279 0
-25 -280 0
-21 -316 0
-22 -317 0
-23 -318 0
-24 -319 0
-25 -320 0
-21 -326 0
-22 -327 0
-23 -328 0
-24 -329 0
-25 -330 0
-21 -336 0
-22 -337 0
-23 -338 0
-24 -339 0
-25 -340 0
-21 -346 0
-22 -347 0
-23 -348 0
-24 -349 0
-25 -350 0
-21 -381 0
-22 -382 0
-23 -383 0
-24 -384 0
-25 -385 0
-21 -386 0
-22 -387 0
-23 -388 0
-24 -389 0
-25 -390 0
-21 -411 0
-22 -412 0
-23 -413 0
-24 -414 0
-25 -415 0
-21 -431 0
-22 -432 0
-23 -433 0
-24 -434 0
-25 -435 0
-21 -451 0
-22 -452 0
-23 -453 0
-24 -454 0
-25 -455 0
-21 -526 0
-22 -527 0
-23 -528 0
-24 -529 0
-25 -530 0
-21 -566 0
-22 -567 0
-23 -568 0
-24 -569 0
-25 -570 0
-21 -646 0
-22 -647 0
-23 -648 0
-24 -649 0
-25 -650 0
-26 -56 0
-27 -57 0
-28 -58 0
-29 -59 0
-30 -60 0
-26 -106 0
-27 -107 0
-28 -108 0
-29 -109 0
-30 -110 0
-26 -221 0
-27 -222 0
-28 -223 0
-29 -224 0
-30 -225 0
-26 -311 0
-27 -312 0
-28 -313 0
-29 -314 0
-30 -315 0
-26 -346 0
-27 -347 0
-28 -348 0
-29 -349 0
-30 -350 0
-26 -426 0
-27 -427 0
-28 -428 0
-29 -429 0
-30 -430 0
-26 -541 0
-27 -542 0
-28 -543 0
-29 -544 0
-30 -545 0
-26 -571 0
-27 -572 0
-28 -573 0
-29 -574 0
-30 -575 0
-26 -621 0
-27 -622 0
-28 -623 0
-29 -624 0
-30 -625 0
-31 -36 0
-32 -37 0
-33 -38 0
-34 -39 0
-35 -40 0
-31 -46 0
-32 -47 0
-33 -48 0
-34 -49 0
-35 -50 0
-31 -96 0
-32 -97 0
-33 -98 0
-34 -99 0
-35 -100 0
-31 -201 0
-32 -202 0
-33 -203 0
-34 -204 0
-35 -205 0
-31 -216 0
-32 -217 0
-33 -218 0
-34 -219 0
-35 -220 0
-31 -221 0
-32 -222 0
-33 -223 0
-34 -224 0
-35 -225 0
-31 -341 0
-32 -342 0
-33 -343 0
-34 -344 0
-35 -345 0
-31 -456 0
-32 -457 0
-33 -458 0
-34 -459 0
-35 -460 0
-31 -601 0
-32 -602 0
-33 -603 0
-34 -604 0
-35 -605 0
-36 -76 0
-37 -77 0
-38 -78 0
-39 -79 0
-40 -80 0
-36 -86 0
-37 -87 0
-38 -88 0
-39 -89 0
-40 -90 0
-36 -171 0
-37 -172 0
-38 -173 0
-39 -174 0
-40 -175 0
-36 -201 0
-37 -202 0
-38 -203 0
-39 -204 0
-40 -205 0
-36 -231 0
-37 -232 0
-38 -233 0
-39 -234 0
-40 -235 0
-36 -241 0
-37 -242 0
-38 -243 0
-39 -244 0
-40 -245 0
-36 -376 0
-37 -377 0
-38 -378 0
-39 -379 0
-40 -380 0
-36 -416 0
-37 -417 0
-38 -418 0
-39 -419 0
-40 -420 0
-36 -466 0
-37 -467 0
-38 -468 0
-39 -469 0
-40 -470 0
-41 -46 0
-42 -47 0
-43 -48 0
-44 -49 0
-45 -50 0
-41 -61 0
-42 -62 0
-43 -63 0
-44 -64 0
-45 -65 0
-41 -66 0
-42 -67 0
-43 -68 0
-44 -69 0
-45 -70 0
-41 -146 0
-42 -147 0
-43 -148 0
-44 -149 0
-45 -150 0
-41 -156 0
-42 -157 0
-43 -158 0
-44 -159 0
-45 -160 0
-41 -176 0
-42 -177 0
-43 -178 0
-44 -179 0
-45 -180 0
-41 -251 0
-42 -252 0
-43 -253 0
-44 -254 0
-45 -255 0
-41 -261 0
-42 -262 0
-43 -263 0
-44 -264 0
-45 -265 0
-41 -296 0
-42 -297 0
-43 -298 0
-44 -299 0
-45 -300 0
-41 -431 0
-42 -432 0
-43 -433 0
-44 -434 0
-45 -435 0
-41 -476 0
-42 -477 0
-43 -478 0
-44 -479 0
-45 -480 0
-41 -491 0
-42 -492 0
-43 -493 0
-44 -494 0
-45 -495 0
-41 -531 0
-42 -532 0
-43 -533 0
-44 -534 0
-45 -535 0
-41 -591 0
-42 -592 0
-43 -593 0
-44 -594 0
-45 -595 0
-46 -141 0
-47 -142 0
-48 -143 0
-49 -144 0
-50 -145 0
-46 -256 0
-47 -257 0
-48 -258 0
-49 -259 0
-50 -260 0
-51 -91 0
-52 -92 0
-53 -93 0
-54 -94 0
-55 -95 0
-51 -116 0
-52 -117 0
-53 -118 0
-54 -119 0
-55 -120 0
-51 -151 0
-52 -152 0
-53 -153 0
-54 -154 0
-55 -155 0
-51 -186 0
-52 -187 0
-53 -188 0
-54 -189 0
-55 -190 0
-51 -191 0
-52 -192 0
-53 -193 0
-54 -194 0
-55 -195 0
-51 -251 0
-52 -252 0
-53 -253 0
-54 -254 0
-55 -255 0
-51 -256 0
-52 -257 0
-53 -258 0
-54 -259 0
-55 -260 0
-51 -321 0
-52 -322 0
-53 -323 0
-54 -324 0
-55 -325 0
-51 -331 0
-52 -332 0
-53 -333 0
-54 -334 0
-55 -335 0
-51 -376 0
-52 -377 0
-53 -378 0
-54 -379 0
-55 -380 0
-51 -466 0
-52 -467 0
-53 -468 0
-54 -469 0
-55 -470 0
-51 -486 0
-52 -487 0
-53 -488 0
-54 -489 0
-55 -490 0
-56 -61 0
-57 -62 0
-58 -63 0
-59 -64 0
-60 -65 0
-56 -81 0
-57 -82 0
-58 -83 0
-59 -84 0
-60 -85 0
-56 -101 0
-57 -102 0
-58 -103 0
-59 -104 0
-60 -105 0
-56 -106 0
-57 -107 0
-58 -108 0
-59 -109 0
-60 -110 0
-56 -111 0
-57 -112 0
-58 -113 0
-59 -114 0
-60 -115 0
-56 -126 0
-57 -127 0
-58 -128 0
-59 -129 0
-60 -130 0
-56 -266 0
-57 -267 0
-58 -268 0
-59 -269 0
-60 -270 0
-56 -271 0
-57 -272 0
-58 -273 0
-59 -274 0
-60 -275 0
-56 -281 0
-57 -282 0
-58 -283 0
-59 -284 0
-60 -285 0
-56 -306 0
-57 -307 0
-58 -308 0
-59 -309 0
-60 -310 0
-56 -311 0
-57 -312 0
-58 -313 0
-59 -314 0
-60 -315 0
-56 -326 0
-57 -327 0
-58 -328 0
-59 -329 0
-60 -330 0
-56 -351 0
-57 -352 0
-58 -353 0
-59 -354 0
-60 -355 0
-56 -366 0
-57 -367 0
-58 -368 0
-59 -369 0
-60 -370 0
-56 -381 0
-57 -382 0
-58 -383 0
-59 -384 0
-60 -385 0
-56 -626 0
-57 -627 0
-58 -628 0
-59 -629 0
-60 -630 0
-61 -176 0
-62 -177 0
-63 -178 0
-64 -179 0
-65 -180 0
-61 -206 0
-62 -207 0
-63 -208 0
-64 -209 0
-65 -210 0
-61 -286 0
-62 -287 0
-63 -288 0
-64 -289 0
-65 -290 0
-61 -321 0
-62 -322 0
-63 -323 0
-64 -324 0
-65 -325 0
-61 -391 0
-62 -392 0
-63 -393 0
-64 -394 0
-65 -395 0
-61 -421 0
-62 -422 0
-63 -423 0
-64 -424 0
-65 -425 0
-61 -436 0
-62 -437 0
-63 -438 0
-64 -439 0
-65 -440 0
-61 -451 0
-62 -452 0
-63 -453 0
-64 -454 0
-65 -455 0
-61 -556 0
-62 -557 0
-63 -558 0
-64 -559 0
-65 -560 0
-61 -586 0
-62 -587 0
-63 -588 0
-64 -589 0
-65 -590 0
-66 -86 0
-67 -87 0
-68 -88 0
-69 -89 0
-70 -90 0
-66 -91 0
-67 -92 0
-68 -93 0
-69 -94 0
-70 -95 0
-66 -121 0
-67 -122 0
-68 -123 0
-69 -124 0
-70 -125 0
-66 -166 0
-67 -167 0
-68 -168 0
-69 -169 0
-70 -170 0
-66 -181 0
-67 -182 0
-68 -183 0
-69 -184 0
-70 -185 0
-66 -246 0
-67 -247 0
-68 -248 0
-69 -249 0
-70 -250 0
-66 -281 0
-67 -282 0
-68 -283 0
-69 -284 0
-70 -285 0
-66 -336 0
-67 -337 0
-68 -338 0
-69 -339 0
-70 -340 0
-66 -351 0
-67 -352 0
-68 -353 0
-69 -354 0
-70 -355 0
-66 -361 0
-67 -362 0
-68 -363 0
-69 -364 0
-70 -365 0
-66 -441 0
-67 -442 0
-68 -443 0
-69 -444 0
-70 -445 0
-66 -566 0
-67 -567 0
-68 -568 0
-69 -569 0
-70 -570 0
-66 -621 0
-67 -622 0
-68 -623 0
-69 -624 0
-70 -625 0
-71 -496 0
-72 -497 0
-73 -498 0
-74 -499 0
-75 -500 0
-76 -96 0
-77 -97 0
-78 -98 0
-79 -99 0
-80 -100 0
-76 -116 0
-77 -117 0
-78 -118 0
-79 -119 0
-80 -120 0
-76 -126 0
-77 -127 0
-78 -128 0
-79 -129 0
-80 -130 0
-76 -141 0
-77 -142 0
-78 -143 0
-79 -144 0
-80 -145 0
-76 -241 0
-77 -242 0
-78 -243 0
-79 -244 0
-80 -245 0
-76 -301 0
-77 -302 0
-78 -303 0
-79 -304 0
-80 -305 0
-76 -316 0
-77 -317 0
-78 -318 0
-79 -319 0
-80 -320 0
-76 -326 0
-77 -327 0
-78 -328 0
-79 -329 0
-80 -330 0
-81 -546 0
-82 -547 0
-83 -548 0
-84 -549 0
-85 -550 0
-86 -291 0
-87 -292 0
-88 -293 0
-89 -294 0
-90 -295 0
-86 -311 0
-87 -312 0
-88 -313 0
-89 -314 0
-90 -315 0
-86 -486 0
-87 -487 0
-88 -488 0
-89 -489 0
-90 -490 0
-86 -501 0
-87 -502 0
-88 -503 0
-89 -504 0
-90 -505 0
-86 -531 0
-87 -532 0
-88 -533 0
-89 -534 0
-90 -535 0
-86 -596 0
-87 -597 0
-88 -598 0
-89 -599 0
-90 -600 0
-91 -96 0
-92 -97 0
-93 -98 0
-94 -99 0
-95 -100 0
-91 -121 0
-92 -122 0
-93 -123 0
-94 -124 0
-95 -125 0
-91 -131 0
-92 -132 0
-93 -133 0
-94 -134 0
-95 -135 0
-91 -166 0
-92 -167 0
-93 -168 0
-94 -169 0
-95 -170 0
-91 -196 0
-92 -197 0
-93 -198 0
-94 -199 0
-95 -200 0
-91 -221 0
-92 -222 0
-93 -223 0
-94 -224 0
-95 -225 0
-91 -251 0
-92 -252 0
-93 -253 0
-94 -254 0
-95 -255 0
-91 -296 0
-92 -297 0
-93 -298 0
-94 -299 0
-95 -300 0
-91 -331 0
-92 -332 0
-93 -333 0
-94 -334 0
-95 -335 0
-91 -386 0
-92 -387 0
-93 -388 0
-94 -389 0
-95 -390 0
-91 -576 0
-92 -577 0
-93 -578 0
-94 -579 0
-95 -580 0
-96 -136 0
-97 -137 0
-98 -138 0
-99 -139 0
-100 -140 0
-96 -191 0
-97 -192 0
-98 -193 0
-99 -194 0
-100 -195 0
-96 -306 0
-97 -307 0
-98 -308 0
-99 -309 0
-100 -310 0
-96 -411 0
-97 -412 0
-98 -413 0
-99 -414 0
-100 -415 0
-96 -446 0
-97 -447 0
-98 -448 0
-99 -449 0
-100 -450 0
-96 -471 0
-97 -472 0
-98 -473 0
-99 -474 0
-100 -475 0
-96 -576 0
-97 -577 0
-98 -578 0
-99 -579 0
-100 -580 0
-101 -366 0
-102 -367 0
-103 -368 0
-104 -369 0
-105 -370 0
-101 -506 0
-102 -507 0
-103 -508 0
-104 -509 0
-105 -510 0
-101 -611 0
-102 -612 0
-103 -613 0
-104 -614 0
-105 -615 0
-101 -631 0
-102 -632 0
-103 -633 0
-104 -634 0
-105 -635 0
-106 -131 0
-107 -132 0
-108 -133 0
-109 -134 0
-110 -135 0
-106 -151 0
-107 -152 0
-108 -153 0
-109 -154 0
-110 -155 0
-106 -161 0
-107 -162 0
-108 -163 0
-109 -164 0
-110 -165 0
-106 -166 0
-107 -167 0
-108 -168 0
-109 -169 0
-110 -170 0
-106 -201 0
-107 -202 0
-108 -203 0
-109 -204 0
-110 -205 0
-106 -211 0
-107 -212 0
-108 -213 0
-109 -214 0
-110 -215 0
-106 -306 0
-107 -307 0
-108 -308 0
-109 -309 0
-110 -310 0
-106 -356 0
-107 -357 0
-108 -358 0
-109 -359 0
-110 -360 0
-106 -391 0
-107 -392 0
-108 -393 0
-109 -394 0
-110 -395 0
-106 -456 0
-107 -457 0
-108 -458 0
-109 -459 0
-110 -460 0
-106 -516 0
-107 -517 0
-108 -518 0
-109 -519 0
-110 -520 0
-106 -586 0
-107 -587 0
-108 -588 0
-109 -589 0
-110 -590 0
-111 -136 0
-112 -137 0
-113 -138 0
-114 -139 0
-115 -140 0
-111 -141 0
-112 -142 0
-113 -143 0
-114 -144 0
-115 -145 0
-111 -261 0
-112 -262 0
-113 -263 0
-114 -264 0
-115 -265 0
-111 -286 0
-112 -287 0
-113 -288 0
-114 -289 0
-115 -290 0
-111 -351 0
-112 -352 0
-113 -353 0
-114 -354 0
-115 -355 0
-111 -436 0
-112 -437 0
-113 -438 0
-114 -439 0
-115 -440 0
-111 -481 0
-112 -482 0
-113 -483 0
-114 -484 0
-115 -485 0
-111 -521 0
-112 -522 0
-113 -523 0
-114 -524 0
-115 -525 0
-111 -641 0
-112 -642 0
-113 -643 0
-114 -644 0
-115 -645 0
-116 -136 0
-117 -137 0
-118 -138 0
-119 -139 0
-120 -140 0
-116 -156 0
-117 -157 0
-118 -158 0
-119 -159 0
-120 -160 0
-116 -191 0
-117 -192 0
-118 -193 0
-119 -194 0
-120 -195 0
-116 -301 0
-117 -302 0
-118 -303 0
-119 -304 0
-120 -305 0
-116 -341 0
-117 -342 0
-118 -343 0
-119 -344 0
-120 -345 0
-116 -356 0
-117 -357 0
-118 -358 0
-119 -359 0
-120 -360 0
-116 -401 0
-117 -402 0
-118 -403 0
-119 -404 0
-120 -405 0
-116 -446 0
-117 -447 0
-118 -448 0
-119 -449 0
-120 -450 0
-121 -161 0
-122 -162 0
-123 -163 0
-124 -164 0
-125 -165 0
-121 -241 0
-122 -242 0
-123 -243 0
-124 -244 0
-125 -245 0
-121 -246 0
-122 -247 0
-123 -248 0
-124 -249 0
-125 -250 0
-121 -261 0
-122 -262 0
-123 -263 0
-124 -264 0
-125 -265 0
-121 -546 0
-122 -547 0
-123 -548 0
-124 -549 0
-125 -550 0
-126 -181 0
-127 -182 0
-128 -183 0
-129 -184 0
-130 -185 0
-131 -581 0
-132 -582 0
-133 -583 0
-134 -584 0
-135 -585 0
-141 -561 0
-142 -562 0
-143 -563 0
-144 -564 0
-145 -565 0
-141 -571 0
-142 -572 0
-143 -573 0
-144 -574 0
-145 -575 0
-146 -476 0
-147 -477 0
-148 -478 0
-149 -479 0
-150 -480 0
-146 -616 0
-147 -617 0
-148 -618 0
-149 -619 0
-150 -620 0
-151 -226 0
-152 -227 0
-153 -228 0
-154 -229 0
-155 -230 0
-151 -231 0
-152 -232 0
-153 -233 0
-154 -234 0
-155 -235 0
-151 -236 0
-152 -237 0
-153 -238 0
-154 -239 0
-155 -240 0
-151 -266 0
-152 -267 0
-153 -268 0
-154 -269 0
-155 -270 0
-151 -341 0
-152 -342 0
-153 -343 0
-154 -344 0
-155 -345 0
-151 -501 0
-152 -502 0
-153 -503 0
-154 -504 0
-155 -505 0
-151 -516 0
-152 -517 0
-153 -518 0
-154 -519 0
-155 -520 0
-156 -206 0
-157 -207 0
-158 -208 0
-159 -209 0
-160 -210 0
-156 -211 0
-157 -212 0
-158 -213 0
-159 -214 0
-160 -215 0
-156 -461 0
-157 -462 0
-158 -463 0
-159 -464 0
-160 -465 0
-156 -471 0
-157 -472 0
-158 -473 0
-159 -474 0
-160 -475 0
-156 -611 0
-157 -612 0
-158 -613 0
-159 -614 0
-160 -615 0
-166 -196 0
-167 -197 0
-168 -198 0
-169 -199 0
-170 -200 0
-171 -461 0
-172 -462 0
-173 -463 0
-174 -464 0
-175 -465 0
-176 -376 0
-177 -377 0
-178 -378 0
-179 -379 0
-180 -380 0
-181 -276 0
-182 -277 0
-183 -278 0
-184 -279 0
-185 -280 0
-181 -291 0
-182 -292 0
-183 -293 0
-184 -294 0
-185 -295 0
-186 -216 0
-187 -217 0
-188 -218 0
-189 -219 0
-190 -220 0
-186 -246 0
-187 -247 0
-188 -248 0
-189 -249 0
-190 -250 0
-186 -506 0
-187 -507 0
-188 -508 0
-189 -509 0
-190 -510 0
-186 -541 0
-187 -542 0
-188 -543 0
-189 -544 0
-190 -545 0
-191 -361 0
-192 -362 0
-193 -363 0
-194 -364 0
-195 -365 0
-191 -426 0
-192 -427 0
-193 -428 0
-194 -429 0
-195 -430 0
-191 -566 0
-192 -567 0
-193 -568 0
-194 -569 0
-195 -570 0
-191 -641 0
-192 -642 0
-193 -643 0
-194 -644 0
-195 -645 0
-201 -291 0
-202 -292 0
-203 -293 0
-204 -294 0
-205 -295 0
-201 -371 0
-202 -372 0
-203 -373 0
-204 -374 0
-205 -375 0
-201 -586 0
-202 -587 0
-203 -588 0
-204 -589 0
-205 -590 0
-201 -646 0
-202 -647 0
-203 -648 0
-204 -649 0
-205 -650 0
-206 -276 0
-207 -277 0
-208 -278 0
-209 -279 0
-210 -280 0
-206 -316 0
-207 -317 0
-208 -318 0
-209 -319 0
-210 -320 0
-216 -581 0
-217 -582 0
-218 -583 0
-219 -584 0
-220 -585 0
-231 -371 0
-232 -372 0
-233 -373 0
-234 -374 0
-235 -375 0
-231 -411 0
-232 -412 0
-233 -413 0
-234 -414 0
-235 -415 0
-231 -521 0
-232 -522 0
-233 -523 0
-234 -524 0
-235 -525 0
-231 -556 0
-232 -557 0
-233 -558 0
-234 -559 0
-235 -560 0
-231 -606 0
-232 -607 0
-233 -608 0
-234 -609 0
-235 -610 0
-246 -286 0
-247 -287 0
-248 -288 0
-249 -289 0
-250 -290 0
-251 -421 0
-252 -422 0
-253 -423 0
-254 -424 0
-255 -425 0
-256 -631 0
-257 -632 0
-258 -633 0
-259 -634 0
-260 -635 0
-261 -346 0
-262 -347 0
-263 -348 0
-264 -349 0
-265 -350 0
-266 -416 0
-267 -417 0
-268 -418 0
-269 -419 0
-270 -420 0
-271 -561 0
-272 -562 0
-273 -563 0
-274 -564 0
-275 -565 0
-281 -506 0
-282 -507 0
-283 -508 0
-284 -509 0
-285 -510 0
-291 -581 0
-292 -582 0
-293 -583 0
-294 -584 0
-295 -585 0
-301 -431 0
-302 -432 0
-303 -433 0
-304 -434 0
-305 -435 0
-301 -451 0
-302 -452 0
-303 -453 0
-304 -454 0
-305 -455 0
-306 -406 0
-307 -407 0
-308 -408 0
-309 -409 0
-310 -410 0
-321 -626 0
-322 -627 0
-323 -628 0
-324 -629 0
-325 -630 0
-341 -396 0
-342 -397 0
-343 -398 0
-344 -399 0
-345 -400 0
-341 -406 0
-342 -407 0
-343 -408 0
-344 -409 0
-345 -410 0
-341 -441 0
-342 -442 0
-343 -443 0
-344 -444 0
-345 -445 0
-341 -471 0
-342 -472 0
-343 -473 0
-344 -474 0
-345 -475 0
-346 -481 0
-347 -482 0
-348 -483 0
-349 -484 0
-350 -485 0
-346 -551 0
-347 -552 0
-348 -553 0
-349 -554 0
-350 -555 0
-346 -626 0
-347 -627 0
-348 -628 0
-349 -629 0
-350 -630 0
-346 -631 0
-347 -632 0
-348 -633 0
-349 -634 0
-350 -635 0
-351 -486 0
-352 -487 0
-353 -488 0
-354 -489 0
-355 -490 0
-351 -491 0
-352 -492 0
-353 -493 0
-354 -494 0
-355 -495 0
-351 -496 0
-352 -497 0
-353 -498 0
-354 -499 0
-355 -500 0
-351 -556 0
-352 -557 0
-353 -558 0
-354 -559 0
-355 -560 0
-356 -606 0
-357 -607 0
-358 -608 0
-359 -609 0
-360 -610 0
-356 -641 0
-357 -642 0
-358 -643 0
-359 -644 0
-360 -645 0
-361 -426 0
-362 -427 0
-363 -428 0
-364 -429 0
-365 -430 0
-361 -591 0
-362 -592 0
-363 -593 0
-364 -594 0
-365 -595 0
-361 -616 0
-362 -617 0
-363 -618 0
-364 -619 0
-365 -620 0
-366 -511 0
-367 -512 0
-368 -513 0
-369 -514 0
-370 -515 0
-371 -441 0
-372 -442 0
-373 -443 0
-374 -444 0
-375 -445 0
-376 -391 0
-377 -392 0
-378 -393 0
-379 -394 0
-380 -395 0
-376 -606 0
-377 -607 0
-378 -608 0
-379 -609 0
-380 -610 0
-381 -616 0
-382 -617 0
-383 -618 0
-384 -619 0
-385 -620 0
-381 -621 0
-382 -622 0
-383 -623 0
-384 -624 0
-385 -625 0
-386 -421 0
-387 -422 0
-388 -423 0
-389 -424 0
-390 -425 0
-391 -396 0
-392 -397 0
-393 -398 0
-394 -399 0
-395 -400 0
-396 -491 0
-397 -492 0
-398 -493 0
-399 -494 0
-400 -495 0
-396 -561 0
-397 -562 0
-398 -563 0
-399 -564 0
-400 -565 0
-396 -636 0
-397 -637 0
-398 -638 0
-399 -639 0
-400 -640 0
-416 -456 0
-417 -457 0
-418 -458 0
-419 -459 0
-420 -460 0
-416 -526 0
-417 -527 0
-418 -528 0
-419 -529 0
-420 -530 0
-416 -636 0
-417 -637 0
-418 -638 0
-419 -639 0
-420 -640 0
-416 -646 0
-417 -647 0
-418 -648 0
-419 -649 0
-420 -650 0
-421 -436 0
-422 -437 0
-423 -438 0
-424 -439 0
-425 -440 0
-441 -461 0
-442 -462 0
-443 -463 0
-444 -464 0
-445 -465 0
-446 -521 0
-447 -522 0
-448 -523 0
-449 -524 0
-450 -525 0
-456 -501 0
-457 -502 0
-458 -503 0
-459 -504 0
-460 -505 0
-471 -481 0
-472 -482 0
-473 -483 0
-474 -484 0
-475 -485 0
-481 -596 0
-482 -597 0
-483 -598 0
-484 -599 0
-485 -600 0
-516 -536 0
-517 -537 0
-518 -538 0
-519 -539 0
-520 -540 0
-521 -546 0
-522 -547 0
-523 -548 0
-524 -549 0
-525 -550 0
-521 -571 0
-522 -572 0
-523 -573 0
-524 -574 0
-525 -575 0
-521 -576 0
-522 -577 0
-523 -578 0
-524 -579 0
-525 -580 0
-521 -596 0
-522 -597 0
-523 -598 0
-524 -599 0
-525 -600 0
-526 -536 0
-527 -537 0
-528 -538 0
-529 -539 0
-530 -540 0
-531 -551 0
-532 -552 0
-533 -553 0
-534 -554 0
-535 -555 0
-566 -601 0
-567 -602 0
-568 -603 0
-569 -604 0
-570 -605 0
-576 -636 0
-577 -637 0
-578 -638 0
-579 -639 0
-580 -640 0